************************************************************************
file with basedata            : md139_.bas
initial value random generator: 764208739
************************************************************************
projects                      :  1
jobs (incl. supersource/sink ):  16
horizon                       :  119
RESOURCES
  - renewable                 :  2   R
  - nonrenewable              :  2   N
  - doubly constrained        :  0   D
************************************************************************
PROJECT INFORMATION:
pronr.  #jobs rel.date duedate tardcost  MPM-Time
    1     14      0       17        6       17
************************************************************************
PRECEDENCE RELATIONS:
jobnr.    #modes  #successors   successors
   1        1          3           2   3   4
   2        3          3           5  13  14
   3        3          3           7   8   9
   4        3          3           6   9  13
   5        3          2           7  11
   6        3          3           7  11  14
   7        3          2          10  12
   8        3          3          10  12  14
   9        3          1          15
  10        3          1          15
  11        3          1          12
  12        3          1          15
  13        3          1          16
  14        3          1          16
  15        3          1          16
  16        1          0        
************************************************************************
REQUESTS/DURATIONS:
jobnr. mode duration  R 1  R 2  N 1  N 2
------------------------------------------------------------------------
  1      1     0       0    0    0    0
  2      1     3       5    0    0    8
         2     4       0    5    0    8
         3     8       0    3    0    6
  3      1     4       7    0    0    5
         2     8       7    0    6    0
         3    10       0    4    3    0
  4      1     2       8    0    0    2
         2     5       7    0    6    0
         3     8       6    0    4    0
  5      1     1       5    0    0   10
         2     1       5    0    8    0
         3     5       0    7    0   10
  6      1     4       0    9    0    8
         2     4       8    0    3    0
         3     7       7    0    0    7
  7      1     6       0    1    9    0
         2    10       0    1    6    0
         3    10       5    0    0    6
  8      1     2       8    0    4    0
         2     4       8    0    0    6
         3     8       0    9    4    0
  9      1     1       4    0    0   10
         2     3       0    8    6    0
         3     7       1    0    6    0
 10      1     3       0    6    0    9
         2     3       9    0    7    0
         3     9       3    0    0    9
 11      1     5       8    0    0    7
         2     7       0    5    6    0
         3    10       3    0    0    6
 12      1     2       0    3    6    0
         2     9       9    0    0   10
         3    10       9    0    4    0
 13      1     2       0    7    0    5
         2     8       2    0    9    0
         3     8       0    7    0    4
 14      1     7       0    7    0    4
         2     8       0    7    0    3
         3     9       8    0    9    0
 15      1     2       6    0    7    0
         2     4       5    0    0    7
         3    10       0    2    0    3
 16      1     0       0    0    0    0
************************************************************************
RESOURCEAVAILABILITIES:
  R 1  R 2  N 1  N 2
   19   20   43   52
************************************************************************
